!
!   GAMESS Calculation input file
!   
!
 $CONTRL SCFTYP=RHF MAXIT=200 RUNTYP=OPTIMIZE
         COORD=UNIQUE MULT=1 
         ICHARG=0  
         DFTTYP=B3LYP
         MOLPLT=.FALSE. PLTORB=.FALSE.  $END
 $SYSTEM TIMLIM=2879 MWORDS=250  $END

 $FORCE METHOD=SEMINUM NVIB=2 $END 
 $STATPT OPTTOL=0.0005 NSTEP=999 $END
 $STATPT IHREP=0 HSSEND=.TRUE.  $END

 $DFT    METHOD=GRID  NLEB=590  $END

 $BASIS  GBASIS=N21 NGAUSS=3 $END

 $SCF    DIRSCF=.T. $END
 $GUESS  GUESS=HUCKEL  $END

 $DATA
   
  C1
C     6.0    -1.23609    -0.76196     0.23026
C     6.0    -0.01953     0.09791    -0.00725
O     8.0     1.16709    -0.54140    -0.14183
N     7.0    -0.06594     1.37984    -0.07003
H     1.0    -2.00776    -0.50521    -0.50135
H     1.0    -1.61466    -0.57428     1.23906
H     1.0    -0.99832    -1.82484     0.13081
H     1.0     1.08125    -1.50543    -0.07066
H     1.0     0.88362     1.73693    -0.22919
 $END


! Customizations after this line are persisted when using Do More Calculations
